benchmarks/bfuzz0/43122516444111941117394181771597532587.smt2
(set-logic QF_FP)
(declare-const x0 (_ FloatingPoint 11 53))
(declare-const x1 (_ FloatingPoint 11 53))
(declare-const x2 (_ FloatingPoint 11 53))
(declare-const x3 (_ FloatingPoint 11 53))
(declare-const x4 (_ FloatingPoint 11 53))
(declare-const x5 (_ FloatingPoint 11 53))
(declare-const x6 (_ FloatingPoint 11 53))
(declare-const x7 (_ FloatingPoint 11 53))
(declare-const x8 (_ FloatingPoint 11 53))
(declare-const x9 (_ FloatingPoint 11 53))
(assert (fp.leq (fp.sub RNE x3 x0) (fp.neg x5)))
(assert (fp.lt (fp.neg x3) (fp.mul RNE x0 x0)))
(assert (fp.eq (fp.add RNE x1 x1) (fp.add RNE x7 x6)))
(assert (fp.eq (fp.div RNE x9 x4) (fp.add RNE x7 x8)))
(check-sat)
