db/data/43122516444111941117394181771597532587.z3.out
sat
-------------------
701.820432185
